28264.0,46.21,50.89
29719.67,43.95,48.4
30911.76,42.26,46.53
28730.35,45.46,50.07
26186.64,49.88,54.93
28320.93,46.12,50.79
24479.5,53.36,58.76
26555.18,49.19,54.17
29913.03,43.67,48.09
32431.77,40.28,44.35
26677.32,48.96,53.92
31362.39,41.65,45.87
29453.12,44.35,48.84
30488.87,42.84,47.18
29096.65,44.89,49.44
31948.78,40.88,45.02
30034.66,43.49,47.89
27222.32,47.98,52.84
29221.3,44.7,49.23
27006.58,48.37,53.26
